(set-info :source |printed by MathSAT|)
(declare-fun .x.14 () Int)
(declare-fun .x.15 () Int)
(declare-fun main@%.0.i_0_0 () Int)
(declare-fun .x.16 () Int)
(declare-fun main@%_3_0_0 () Int)
(declare-fun main@%_3_1 () Int)
(declare-fun main@%assume.flag.0_0_0 () Bool)
(declare-fun .x.17 () Bool)
(declare-fun main@%_6_0_0 () Int)
(declare-fun main@%_6_1 () Int)
(declare-fun main@%shadow.mem.1_0_0 () (Array Int Int))
(declare-fun .x.18 () (Array Int Int))
(declare-fun main@%_7_0_0 () Int)
(declare-fun main@%_7_1 () Int)
(declare-fun main@%shadow.mem1.1_0_0 () (Array Int Int))
(declare-fun .x.19 () (Array Int Int))
(declare-fun main@%_5_0_0 () Bool)
(declare-fun main@%_5_1 () Bool)
(declare-fun main@%_16_0_0 () (Array Int Int))
(declare-fun .x.20 () (Array Int Int))
(declare-fun main@%_12_0_0 () (Array Int Int))
(declare-fun .x.21 () (Array Int Int))
(declare-fun main@%.13.i1_0_0 () Int)
(declare-fun .x.22 () Int)
(declare-fun main@%.01.i2_0_0 () Int)
(declare-fun .x.23 () Int)
(declare-fun main@%_4_0_0 () Bool)
(declare-fun main@%_4_1 () Bool)
(declare-fun @nd_char_0_0 () Int)
(declare-fun .x.24 () Int)
(declare-fun main@%.02.i3_0_0 () Int)
(declare-fun main@%.02.i3_2 () Int)
(declare-fun main@%shadow.mem.0_0_0 () (Array Int Int))
(declare-fun main@%shadow.mem.0_2 () (Array Int Int))
(declare-fun main@%shadow.mem1.0_0_0 () (Array Int Int))
(declare-fun main@%shadow.mem1.0_2 () (Array Int Int))
(declare-fun @nd_0_0 () Int)
(declare-fun .x.25 () Int)
(declare-fun main@%_14_0 () Int)
(declare-fun main@%_10_0 () Int)
(define-fun .def_8 () Int (! .x.14 :next |.x.15|))
(define-fun .def_10 () Int (! main@%.0.i_0_0 :next |.x.16|))
(define-fun .def_12 () Int (! main@%_3_0_0 :next |main@%_3_1|))
(define-fun .def_14 () Bool (! main@%assume.flag.0_0_0 :next |.x.17|))
(define-fun .def_16 () Int (! main@%_6_0_0 :next |main@%_6_1|))
(define-fun .def_18 () (Array Int Int) (! main@%shadow.mem.1_0_0 :next |.x.18|))
(define-fun .def_20 () Int (! main@%_7_0_0 :next |main@%_7_1|))
(define-fun .def_22 () (Array Int Int) (! main@%shadow.mem1.1_0_0 :next |.x.19|))
(define-fun .def_24 () Bool (! main@%_5_0_0 :next |main@%_5_1|))
(define-fun .def_26 () (Array Int Int) (! main@%_16_0_0 :next |.x.20|))
(define-fun .def_28 () (Array Int Int) (! main@%_12_0_0 :next |.x.21|))
(define-fun .def_30 () Int (! main@%.13.i1_0_0 :next |.x.22|))
(define-fun .def_32 () Int (! main@%.01.i2_0_0 :next |.x.23|))
(define-fun .def_34 () Bool (! main@%_4_0_0 :next |main@%_4_1|))
(define-fun .def_36 () Int (! @nd_char_0_0 :next |.x.24|))
(define-fun .def_38 () Int (! main@%.02.i3_0_0 :next |main@%.02.i3_2|))
(define-fun .def_40 () (Array Int Int) (! main@%shadow.mem.0_0_0 :next |main@%shadow.mem.0_2|))
(define-fun .def_42 () (Array Int Int) (! main@%shadow.mem1.0_0_0 :next |main@%shadow.mem1.0_2|))
(define-fun .def_44 () Int (! @nd_0_0 :next |.x.25|))
(define-fun .def_223 () Int (! main@%_14_0 :next |.xtv.1|))
(define-fun .def_233 () Int (! main@%_10_0 :next |.xtv.2|))
(define-fun .def_338 () Bool (! (= .def_8 0) :init true))
(define-fun .def_352 () Bool (= .def_36 .x.24))
(define-fun .def_351 () Bool (= .def_44 .x.25))
(define-fun .def_353 () Bool (and .def_351 .def_352))
(define-fun .def_335 () Bool (<= main@%_7_1 0))
(define-fun .def_336 () Bool (not .def_335))
(define-fun .def_332 () Bool (<= main@%_6_1 0))
(define-fun .def_333 () Bool (not .def_332))
(define-fun .def_328 () Bool (<= main@%_3_1 0))
(define-fun .def_329 () Bool (not .def_328))
(define-fun .def_330 () Bool (= main@%_4_1 .def_329))
(define-fun .def_327 () Bool (= main@%_5_1 main@%_4_1))
(define-fun .def_331 () Bool (and .def_327 .def_330))
(define-fun .def_334 () Bool (and .def_331 .def_333))
(define-fun .def_337 () Bool (and .def_334 .def_336))
(define-fun .def_339 () Bool (and .def_337 .def_338))
(define-fun .def_54 () Bool (= .def_26 .x.20))
(define-fun .def_340 () Bool (and .def_54 .def_339))
(define-fun .def_56 () Bool (= .def_28 .x.21))
(define-fun .def_341 () Bool (and .def_56 .def_340))
(define-fun .def_324 () Bool (= main@%.02.i3_2 0))
(define-fun .def_283 () Bool (= .x.15 1))
(define-fun .def_319 () Bool (and main@%_4_1 .def_283))
(define-fun .def_46 () Bool (= .def_10 .x.16))
(define-fun .def_320 () Bool (and .def_46 .def_319))
(define-fun .def_48 () Bool (= .def_14 .x.17))
(define-fun .def_321 () Bool (and .def_48 .def_320))
(define-fun .def_50 () Bool (= .def_18 .x.18))
(define-fun .def_322 () Bool (and .def_50 .def_321))
(define-fun .def_52 () Bool (= .def_22 .x.19))
(define-fun .def_323 () Bool (and .def_52 .def_322))
(define-fun .def_325 () Bool (and .def_323 .def_324))
(define-fun .def_312 () Bool (= .x.17 main@%_5_1))
(define-fun .def_141 () Bool (= .x.16 0))
(define-fun .def_313 () Bool (and .def_141 .def_312))
(define-fun .def_311 () Bool (not main@%_4_1))
(define-fun .def_314 () Bool (and .def_311 .def_313))
(define-fun .def_114 () Bool (= .x.15 3))
(define-fun .def_315 () Bool (and .def_114 .def_314))
(define-fun .def_62 () Bool (= .def_38 main@%.02.i3_2))
(define-fun .def_316 () Bool (and .def_62 .def_315))
(define-fun .def_64 () Bool (= .def_40 main@%shadow.mem.0_2))
(define-fun .def_317 () Bool (and .def_64 .def_316))
(define-fun .def_66 () Bool (= .def_42 main@%shadow.mem1.0_2))
(define-fun .def_318 () Bool (and .def_66 .def_317))
(define-fun .def_326 () Bool (or .def_318 .def_325))
(define-fun .def_342 () Bool (and .def_326 .def_341))
(define-fun .def_219 () Int (* (- 1) .def_38))
(define-fun .def_220 () Int (+ .def_12 .def_219))
(define-fun .def_221 () Bool (<= .def_220 1))
(define-fun .def_297 () Bool (not .def_221))
(define-fun .def_295 () Bool (= .x.20 main@%shadow.mem1.0_2))
(define-fun .def_291 () Int (* (- 1) main@%.02.i3_2))
(define-fun .def_292 () Int (+ .def_38 .def_291))
(define-fun .def_293 () Bool (= .def_292 (- 1)))
(define-fun .def_288 () Bool (= .x.21 main@%shadow.mem.0_2))
(define-fun .def_284 () Bool (and .def_46 .def_283))
(define-fun .def_285 () Bool (and .def_48 .def_284))
(define-fun .def_286 () Bool (and .def_50 .def_285))
(define-fun .def_287 () Bool (and .def_52 .def_286))
(define-fun .def_289 () Bool (and .def_287 .def_288))
(define-fun .def_294 () Bool (and .def_289 .def_293))
(define-fun .def_296 () Bool (and .def_294 .def_295))
(define-fun .def_298 () Bool (and .def_296 .def_297))
(define-fun .def_224 () Int (+ .def_20 .def_38))
(define-fun .def_225 () (Array Int Int) (store .def_42 .def_224 .def_223))
(define-fun .def_226 () Bool (= .x.20 .def_225))
(define-fun .def_299 () Bool (and .def_226 .def_298))
(define-fun .def_69 () Bool (<= .def_20 0))
(define-fun .def_70 () Bool (not .def_69))
(define-fun .def_300 () Bool (and .def_70 .def_299))
(define-fun .def_229 () Bool (<= .def_224 0))
(define-fun .def_230 () Bool (not .def_229))
(define-fun .def_231 () Bool (or .def_69 .def_230))
(define-fun .def_301 () Bool (and .def_231 .def_300))
(define-fun .def_234 () Int (+ .def_16 .def_38))
(define-fun .def_235 () (Array Int Int) (store .def_40 .def_234 .def_233))
(define-fun .def_236 () Bool (= .x.21 .def_235))
(define-fun .def_302 () Bool (and .def_236 .def_301))
(define-fun .def_72 () Bool (<= .def_16 0))
(define-fun .def_73 () Bool (not .def_72))
(define-fun .def_303 () Bool (and .def_73 .def_302))
(define-fun .def_239 () Bool (<= .def_234 0))
(define-fun .def_240 () Bool (not .def_239))
(define-fun .def_241 () Bool (or .def_72 .def_240))
(define-fun .def_304 () Bool (and .def_241 .def_303))
(define-fun .def_243 () Bool (= .def_8 1))
(define-fun .def_305 () Bool (and .def_243 .def_304))
(define-fun .def_75 () Bool (= .def_12 main@%_3_1))
(define-fun .def_306 () Bool (and .def_75 .def_305))
(define-fun .def_77 () Bool (= .def_16 main@%_6_1))
(define-fun .def_307 () Bool (and .def_77 .def_306))
(define-fun .def_79 () Bool (= .def_20 main@%_7_1))
(define-fun .def_308 () Bool (and .def_79 .def_307))
(define-fun .def_81 () Bool (= .def_24 main@%_5_1))
(define-fun .def_309 () Bool (and .def_81 .def_308))
(define-fun .def_83 () Bool (= .def_34 main@%_4_1))
(define-fun .def_310 () Bool (and .def_83 .def_309))
(define-fun .def_343 () Bool (or .def_310 .def_342))
(define-fun .def_60 () Bool (= .def_32 .x.23))
(define-fun .def_58 () Bool (= .def_30 .x.22))
(define-fun .def_213 () Bool (and .def_58 .def_60))
(define-fun .def_344 () Bool (and .def_213 .def_343))
(define-fun .def_280 () Bool (= .x.22 0))
(define-fun .def_278 () Bool (= .x.23 1))
(define-fun .def_258 () Bool (and .def_34 .def_46))
(define-fun .def_259 () Bool (and .def_48 .def_258))
(define-fun .def_260 () Bool (and .def_50 .def_259))
(define-fun .def_261 () Bool (and .def_52 .def_260))
(define-fun .def_262 () Bool (and .def_62 .def_261))
(define-fun .def_263 () Bool (and .def_64 .def_262))
(define-fun .def_264 () Bool (and .def_66 .def_263))
(define-fun .def_265 () Bool (and .def_221 .def_264))
(define-fun .def_266 () Bool (and .def_226 .def_265))
(define-fun .def_267 () Bool (and .def_70 .def_266))
(define-fun .def_268 () Bool (and .def_231 .def_267))
(define-fun .def_269 () Bool (and .def_236 .def_268))
(define-fun .def_270 () Bool (and .def_73 .def_269))
(define-fun .def_271 () Bool (and .def_241 .def_270))
(define-fun .def_272 () Bool (and .def_243 .def_271))
(define-fun .def_273 () Bool (and .def_75 .def_272))
(define-fun .def_274 () Bool (and .def_77 .def_273))
(define-fun .def_275 () Bool (and .def_79 .def_274))
(define-fun .def_276 () Bool (and .def_81 .def_275))
(define-fun .def_277 () Bool (and .def_83 .def_276))
(define-fun .def_279 () Bool (and .def_277 .def_278))
(define-fun .def_281 () Bool (and .def_279 .def_280))
(define-fun .def_200 () Bool (= .x.15 2))
(define-fun .def_282 () Bool (and .def_200 .def_281))
(define-fun .def_345 () Bool (or .def_282 .def_344))
(define-fun .def_256 () Bool (not .def_34))
(define-fun .def_254 () Bool (= .x.19 .x.20))
(define-fun .def_252 () Bool (= .x.18 .x.21))
(define-fun .def_250 () Bool (= .x.17 .def_24))
(define-fun .def_214 () Bool (and .def_141 .def_213))
(define-fun .def_215 () Bool (and .def_114 .def_214))
(define-fun .def_216 () Bool (and .def_62 .def_215))
(define-fun .def_217 () Bool (and .def_64 .def_216))
(define-fun .def_218 () Bool (and .def_66 .def_217))
(define-fun .def_222 () Bool (and .def_218 .def_221))
(define-fun .def_227 () Bool (and .def_222 .def_226))
(define-fun .def_228 () Bool (and .def_70 .def_227))
(define-fun .def_232 () Bool (and .def_228 .def_231))
(define-fun .def_237 () Bool (and .def_232 .def_236))
(define-fun .def_238 () Bool (and .def_73 .def_237))
(define-fun .def_242 () Bool (and .def_238 .def_241))
(define-fun .def_244 () Bool (and .def_242 .def_243))
(define-fun .def_245 () Bool (and .def_75 .def_244))
(define-fun .def_246 () Bool (and .def_77 .def_245))
(define-fun .def_247 () Bool (and .def_79 .def_246))
(define-fun .def_248 () Bool (and .def_81 .def_247))
(define-fun .def_249 () Bool (and .def_83 .def_248))
(define-fun .def_251 () Bool (and .def_249 .def_250))
(define-fun .def_253 () Bool (and .def_251 .def_252))
(define-fun .def_255 () Bool (and .def_253 .def_254))
(define-fun .def_257 () Bool (and .def_255 .def_256))
(define-fun .def_346 () Bool (or .def_257 .def_345))
(define-fun .def_155 () Int (* (- 1) .def_30))
(define-fun .def_156 () Int (+ .def_12 .def_155))
(define-fun .def_157 () Bool (<= .def_156 1))
(define-fun .def_208 () Bool (not .def_157))
(define-fun .def_204 () Int (* (- 1) .x.22))
(define-fun .def_205 () Int (+ .def_30 .def_204))
(define-fun .def_206 () Bool (= .def_205 (- 1)))
(define-fun .def_164 () Int (+ .def_16 .def_30))
(define-fun .def_173 () Int (select .def_28 .def_164))
(define-fun .def_159 () Int (+ .def_20 .def_30))
(define-fun .def_172 () Int (select .def_26 .def_159))
(define-fun .def_174 () Bool (= .def_172 .def_173))
(define-fun .def_175 () Int (ite .def_174 .def_32 0))
(define-fun .def_202 () Bool (= .x.23 .def_175))
(define-fun .def_185 () Bool (and .def_46 .def_48))
(define-fun .def_186 () Bool (and .def_50 .def_185))
(define-fun .def_187 () Bool (and .def_52 .def_186))
(define-fun .def_188 () Bool (and .def_54 .def_187))
(define-fun .def_189 () Bool (and .def_56 .def_188))
(define-fun .def_190 () Bool (and .def_62 .def_189))
(define-fun .def_191 () Bool (and .def_64 .def_190))
(define-fun .def_192 () Bool (and .def_66 .def_191))
(define-fun .def_193 () Bool (and .def_70 .def_192))
(define-fun .def_194 () Bool (and .def_73 .def_193))
(define-fun .def_195 () Bool (and .def_75 .def_194))
(define-fun .def_196 () Bool (and .def_77 .def_195))
(define-fun .def_197 () Bool (and .def_79 .def_196))
(define-fun .def_198 () Bool (and .def_81 .def_197))
(define-fun .def_199 () Bool (and .def_83 .def_198))
(define-fun .def_201 () Bool (and .def_199 .def_200))
(define-fun .def_203 () Bool (and .def_201 .def_202))
(define-fun .def_207 () Bool (and .def_203 .def_206))
(define-fun .def_209 () Bool (and .def_207 .def_208))
(define-fun .def_160 () Bool (<= .def_159 0))
(define-fun .def_161 () Bool (not .def_160))
(define-fun .def_162 () Bool (or .def_69 .def_161))
(define-fun .def_210 () Bool (and .def_162 .def_209))
(define-fun .def_165 () Bool (<= .def_164 0))
(define-fun .def_166 () Bool (not .def_165))
(define-fun .def_167 () Bool (or .def_72 .def_166))
(define-fun .def_211 () Bool (and .def_167 .def_210))
(define-fun .def_170 () Bool (= .def_8 2))
(define-fun .def_212 () Bool (and .def_170 .def_211))
(define-fun .def_347 () Bool (or .def_212 .def_346))
(define-fun .def_183 () Bool (= .x.19 .def_26))
(define-fun .def_181 () Bool (= .x.18 .def_28))
(define-fun .def_176 () Bool (= .def_175 0))
(define-fun .def_177 () Bool (not .def_176))
(define-fun .def_178 () Bool (and .def_24 .def_177))
(define-fun .def_179 () Bool (= .x.17 .def_178))
(define-fun .def_138 () Bool (and .def_54 .def_56))
(define-fun .def_139 () Bool (and .def_58 .def_138))
(define-fun .def_140 () Bool (and .def_60 .def_139))
(define-fun .def_142 () Bool (and .def_140 .def_141))
(define-fun .def_143 () Bool (and .def_114 .def_142))
(define-fun .def_144 () Bool (and .def_62 .def_143))
(define-fun .def_145 () Bool (and .def_64 .def_144))
(define-fun .def_146 () Bool (and .def_66 .def_145))
(define-fun .def_147 () Bool (and .def_70 .def_146))
(define-fun .def_148 () Bool (and .def_73 .def_147))
(define-fun .def_149 () Bool (and .def_75 .def_148))
(define-fun .def_150 () Bool (and .def_77 .def_149))
(define-fun .def_151 () Bool (and .def_79 .def_150))
(define-fun .def_152 () Bool (and .def_81 .def_151))
(define-fun .def_153 () Bool (and .def_83 .def_152))
(define-fun .def_158 () Bool (and .def_153 .def_157))
(define-fun .def_163 () Bool (and .def_158 .def_162))
(define-fun .def_168 () Bool (and .def_163 .def_167))
(define-fun .def_171 () Bool (and .def_168 .def_170))
(define-fun .def_180 () Bool (and .def_171 .def_179))
(define-fun .def_182 () Bool (and .def_180 .def_181))
(define-fun .def_184 () Bool (and .def_182 .def_183))
(define-fun .def_348 () Bool (or .def_184 .def_347))
(define-fun .def_130 () Int (* (- 1) .x.16))
(define-fun .def_131 () Int (+ .def_10 .def_130))
(define-fun .def_132 () Bool (= .def_131 (- 1)))
(define-fun .def_85 () Bool (<= .def_12 .def_10))
(define-fun .def_86 () Bool (not .def_85))
(define-fun .def_126 () Bool (and .def_14 .def_86))
(define-fun .def_127 () Bool (= .x.17 .def_126))
(define-fun .def_109 () Bool (and .def_50 .def_52))
(define-fun .def_110 () Bool (and .def_54 .def_109))
(define-fun .def_111 () Bool (and .def_56 .def_110))
(define-fun .def_112 () Bool (and .def_58 .def_111))
(define-fun .def_113 () Bool (and .def_60 .def_112))
(define-fun .def_115 () Bool (and .def_113 .def_114))
(define-fun .def_116 () Bool (and .def_62 .def_115))
(define-fun .def_117 () Bool (and .def_64 .def_116))
(define-fun .def_118 () Bool (and .def_66 .def_117))
(define-fun .def_119 () Bool (and .def_70 .def_118))
(define-fun .def_120 () Bool (and .def_73 .def_119))
(define-fun .def_121 () Bool (and .def_75 .def_120))
(define-fun .def_122 () Bool (and .def_77 .def_121))
(define-fun .def_123 () Bool (and .def_79 .def_122))
(define-fun .def_124 () Bool (and .def_81 .def_123))
(define-fun .def_125 () Bool (and .def_83 .def_124))
(define-fun .def_128 () Bool (and .def_125 .def_127))
(define-fun .def_133 () Bool (and .def_128 .def_132))
(define-fun .def_93 () Int (+ .def_10 .def_16))
(define-fun .def_102 () Int (select .def_18 .def_93))
(define-fun .def_88 () Int (+ .def_10 .def_20))
(define-fun .def_101 () Int (select .def_22 .def_88))
(define-fun .def_103 () Bool (= .def_101 .def_102))
(define-fun .def_134 () Bool (and .def_103 .def_133))
(define-fun .def_89 () Bool (<= .def_88 0))
(define-fun .def_90 () Bool (not .def_89))
(define-fun .def_91 () Bool (or .def_69 .def_90))
(define-fun .def_135 () Bool (and .def_91 .def_134))
(define-fun .def_94 () Bool (<= .def_93 0))
(define-fun .def_95 () Bool (not .def_94))
(define-fun .def_96 () Bool (or .def_72 .def_95))
(define-fun .def_136 () Bool (and .def_96 .def_135))
(define-fun .def_99 () Bool (= .def_8 3))
(define-fun .def_137 () Bool (and .def_99 .def_136))
(define-fun .def_349 () Bool (or .def_137 .def_348))
(define-fun .def_107 () Bool (= .x.15 4))
(define-fun .def_104 () Bool (not .def_103))
(define-fun .def_47 () Bool (and .def_14 .def_46))
(define-fun .def_49 () Bool (and .def_47 .def_48))
(define-fun .def_51 () Bool (and .def_49 .def_50))
(define-fun .def_53 () Bool (and .def_51 .def_52))
(define-fun .def_55 () Bool (and .def_53 .def_54))
(define-fun .def_57 () Bool (and .def_55 .def_56))
(define-fun .def_59 () Bool (and .def_57 .def_58))
(define-fun .def_61 () Bool (and .def_59 .def_60))
(define-fun .def_63 () Bool (and .def_61 .def_62))
(define-fun .def_65 () Bool (and .def_63 .def_64))
(define-fun .def_67 () Bool (and .def_65 .def_66))
(define-fun .def_71 () Bool (and .def_67 .def_70))
(define-fun .def_74 () Bool (and .def_71 .def_73))
(define-fun .def_76 () Bool (and .def_74 .def_75))
(define-fun .def_78 () Bool (and .def_76 .def_77))
(define-fun .def_80 () Bool (and .def_78 .def_79))
(define-fun .def_82 () Bool (and .def_80 .def_81))
(define-fun .def_84 () Bool (and .def_82 .def_83))
(define-fun .def_87 () Bool (and .def_84 .def_86))
(define-fun .def_92 () Bool (and .def_87 .def_91))
(define-fun .def_97 () Bool (and .def_92 .def_96))
(define-fun .def_100 () Bool (and .def_97 .def_99))
(define-fun .def_105 () Bool (and .def_100 .def_104))
(define-fun .def_108 () Bool (and .def_105 .def_107))
(define-fun .def_350 () Bool (or .def_108 .def_349))
(define-fun .def_354 () Bool (! (and .def_350 .def_353) :trans true))
(define-fun .def_355 () Bool (= .def_8 4))
(define-fun .def_356 () Bool (! (not .def_355) :invar-property 0))
(assert true)
